p td 38 114
2 1
4 3
4 2
6 4
6 2
8 1
9 2
10 2
11 10
11 7
11 5
11 2
12 3
13 4
13 11
14 6
14 7
15 13
15 14
15 4
16 7
17 4
17 6
17 9
18 9
18 4
18 11
18 3
19 3
19 8
19 14
20 11
20 5
20 2
21 13
21 8
22 2
22 17
22 4
22 7
23 2
23 3
23 5
24 8
24 1
24 5
25 7
25 11
25 2
25 9
26 24
26 13
26 23
26 5
26 16
26 25
27 11
27 12
27 26
27 4
28 13
28 18
28 27
28 15
29 21
29 1
29 10
30 20
30 14
30 1
30 3
30 28
30 4
30 5
31 16
31 20
31 7
31 5
32 1
32 30
32 19
33 20
33 9
33 8
33 14
33 1
33 24
33 2
33 12
33 26
34 19
34 5
34 11
34 4
35 28
35 13
35 16
35 11
35 20
36 9
36 6
36 26
36 7
36 33
36 12
36 5
37 13
37 8
37 9
37 31
37 18
37 2
37 15
37 33
